50

100 21 202
98 13 309
97 11 208
97 3 347
92 15 225
92 10 404
92 21 196
91 6 325
88 21 347
84 5 371
83 24 307
82 24 174
77 8 377
77 14 413
76 11 251
75 16 403
74 22 268
73 13 200
72 3 312
70 5 243
70 3 442
67 4 441
66 17 178
65 4 238
63 7 446
62 19 353
62 9 430
62 7 279
62 3 295
58 7 406
57 16 400
57 5 450
54 12 387
53 2 204
52 8 217
52 10 276
50 5 377
46 12 206
45 6 173
43 4 392
42 13 303
41 3 222
41 2 234
41 9 449
40 4 362
37 1 419
37 1 413
36 10 273
33 5 413
33 1 399
